language ESSENCE' 1.0
letting values be [[4, 0, 0, 5, 1, 3, 0, 9, 0], [3, 5, 0, 0, 2, 9, 1, 7, 8], [1, 2, 0, 0, 0, 6, 0, 3, 0], [8, 0, 4, 0, 3, 0, 7, 0, 9], [2, 0, 0, 1, 9, 7, 8, 4, 0], [0, 7, 3, 6, 0, 8, 5, 0, 0], [6, 0, 1, 0, 0, 2, 9, 0, 0], [0, 3, 0, 0, 0, 0, 0, 5, 0], [5, 9, 8, 7, 0, 4, 3, 0, 1]]